webassembly/ejemplos_dzn/14/folder14_json_95.dzn
TERM = { '.', 'in_10', 'in_1', 'local_0', 'local_1', 'in_6', 'in_2', 'in_4', 'in_3', 'in_9', 'in_8', 's(1)', 's(0)', 'in_7', 'in_5', 'in_0'};
null = '.';
s = 14;
n = 18;
ndeps = 5;
max_registers_sz = 5;
NR = 2;
registers = [|'local_0', 'in_8', |'local_1', 'in_9'|];
dependencies = [|'i32.store_2', 'i32.store_3', |'i32.store_3', 'i32.store_4', |'i32.store_4', 'i32.store16_5', |'i32.store16_5', 'i32.load16_u_7', |'i32.store16_5', 'i32.load8_u_13'|];
GET_ENUM = { GET1, GET2, GET3, GET4, GET5, GET6, GET7};
SET_ENUM = { SET1, SET2, SET3, SET4, SET5, SET6, SET7};
TEE_ENUM = { TEE1, TEE2, TEE3, TEE4, TEE5, TEE6, TEE7};
N = 6;
OP = { 'i32.store_2', 'i32.store_3', 'i32.store_4', 'i32.store16_5', 'i32.load16_u_7', 'i32.load8_u_13' };
in_ops = [2, 2, 2, 2, 1, 1 ];
out_ops = [0, 0, 0, 0, 1, 1 ];
in1 = ['local_1', 'in_0', 'in_2', 'in_4', 'in_6', 'in_10' ];
in2 = ['local_0', 'in_1', 'in_3', 'in_5', '.', '.' ];
in3 = ['.', '.', '.', '.', '.', '.' ];
out1 = ['.', '.', '.', '.', 's(0)', 's(1)' ];
out2 = ['.', '.', '.', '.', '.', '.' ];
out3 = ['.', '.', '.', '.', '.', '.' ];
comm = [false, false, false, false, false, false ];
gas = [1, 1, 1, 1, 1, 1 ];
sz = [1, 1, 1, 1, 1, 1 ];
stor = [true, true, true, true, false, false ];
lb = [ 1, 1, 1, 1, 1, 1 ];
ub = [ 14, 14, 14, 14, 14, 14 ];
startstack = [ 'in_0', 'in_1', 'in_2', 'in_3', 'in_4', 'in_5', 'in_6', 'in_7', 'in_8', 'in_9', 'in_10', null, null, null, null, null, null, null ];
endstack = [ 's(1)', null, null, null, null, null, null, null, null, null, null, null, null, null, null, null, null, null ];
