webassembly/ejemplos_results/folder14_json_95.txt
=====UNSATISFIABLE=====
% time elapsed: 0.59 s
